NAME : mtspf.pid4874.gtsp.123480452.tour
COMMENT : Length = 123480452
COMMENT : Found by LKH [Keld Helsgaun] Thu Jan  9 11:46:12 2025
TYPE : TOUR
DIMENSION : 83
TOUR_SECTION
1
17
18
19
16
3
7
4
5
6
26
27
24
25
37
38
39
36
65
66
67
64
61
62
63
60
2
31
28
29
30
58
59
56
57
80
81
82
83
15
12
13
14
53
54
55
52
8
9
10
11
35
32
33
34
74
75
72
73
47
44
45
46
51
48
49
50
42
43
40
41
70
71
68
69
22
23
20
21
77
78
79
76
-1
EOF
